
n_res = 4;
rcap = [34, 30, 489, 522];
rtype = [1, 1, 2, 2];
n_tasks = 100;
modes =  [{1, 2, 3}, {4, 5, 6}, {7, 8, 9}, {10, 11, 12}, {13, 14, 15}, {16, 17, 18}, {19, 20, 21}, {22, 23, 24}, {25, 26, 27}, {28, 29, 30}, {31, 32, 33}, {34, 35, 36}, {37, 38, 39}, {40, 41, 42}, {43, 44, 45}, {46, 47, 48}, {49, 50, 51}, {52, 53, 54}, {55, 56, 57}, {58, 59, 60}, {61, 62, 63}, {64, 65, 66}, {67, 68, 69}, {70, 71, 72}, {73, 74, 75}, {76, 77, 78}, {79, 80, 81}, {82, 83, 84}, {85, 86, 87}, {88, 89, 90}, {91, 92, 93}, {94, 95, 96}, {97, 98, 99}, {100, 101, 102}, {103, 104, 105}, {106, 107, 108}, {109, 110, 111}, {112, 113, 114}, {115, 116, 117}, {118, 119, 120}, {121, 122, 123}, {124, 125, 126}, {127, 128, 129}, {130, 131, 132}, {133, 134, 135}, {136, 137, 138}, {139, 140, 141}, {142, 143, 144}, {145, 146, 147}, {148, 149, 150}, {151, 152, 153}, {154, 155, 156}, {157, 158, 159}, {160, 161, 162}, {163, 164, 165}, {166, 167, 168}, {169, 170, 171}, {172, 173, 174}, {175, 176, 177}, {178, 179, 180}, {181, 182, 183}, {184, 185, 186}, {187, 188, 189}, {190, 191, 192}, {193, 194, 195}, {196, 197, 198}, {199, 200, 201}, {202, 203, 204}, {205, 206, 207}, {208, 209, 210}, {211, 212, 213}, {214, 215, 216}, {217, 218, 219}, {220, 221, 222}, {223, 224, 225}, {226, 227, 228}, {229, 230, 231}, {232, 233, 234}, {235, 236, 237}, {238, 239, 240}, {241, 242, 243}, {244, 245, 246}, {247, 248, 249}, {250, 251, 252}, {253, 254, 255}, {256, 257, 258}, {259, 260, 261}, {262, 263, 264}, {265, 266, 267}, {268, 269, 270}, {271, 272, 273}, {274, 275, 276}, {277, 278, 279}, {280, 281, 282}, {283, 284, 285}, {286, 287, 288}, {289, 290, 291}, {292, 293, 294}, {295, 296, 297}, {298, 299, 300}];
succ =  [{55, 46, 44, 41, 33, 30, 28, 23, 20, 18, 16}, {55, 44, 43, 34, 33, 32, 28, 27, 25, 24, 20, 15}, {46, 43, 41, 35, 28, 27, 19, 18, 17}, {44, 41, 39, 37, 34, 29, 27, 26, 23, 21, 20, 19}, {48, 46, 44, 43, 41, 36, 35, 33, 32, 29, 27, 25, 18}, {51, 43, 41, 39, 33, 32, 31, 29, 26, 25, 22, 20}, {55, 48, 46, 44, 43, 42, 38, 37, 35, 34, 33, 32, 29, 26, 23, 21}, {55, 48, 46, 44, 42, 41, 38, 35, 33, 27, 21, 18}, {55, 43, 42, 41, 37, 36, 33, 29, 28, 23, 20}, {55, 53, 48, 46, 43, 41, 38, 37, 35, 34, 28, 25, 21}, {55, 52, 48, 43, 38, 37, 34, 33, 26, 25, 23, 21}, {55, 51, 49, 48, 47, 46, 45, 44, 43, 41, 40, 35, 27, 25}, {55, 49, 46, 45, 42, 41, 39, 35, 33, 27, 23}, {60, 46, 44, 43, 41, 38, 34, 27, 26, 21}, {62, 58, 51, 50, 48, 45, 42, 41, 40, 39, 38, 37, 29}, {66, 62, 59, 56, 53, 52, 51, 50, 49, 43, 40, 35, 32}, {55, 53, 49, 48, 40, 39, 37, 32, 25}, {72, 57, 52, 37, 34, 26}, {100, 72, 71, 67, 64, 58, 56, 55, 52, 47, 42, 33}, {100, 72, 60, 59, 56, 50, 48, 47, 40, 38, 35}, {78, 66, 64, 62, 59, 58, 57, 56, 51, 50, 49, 45, 40}, {78, 72, 71, 64, 62, 60, 58, 57, 53, 47, 45, 37}, {100, 78, 66, 64, 62, 61, 60, 59, 58, 57, 56, 53, 51, 47, 40}, {78, 64, 63, 61, 58, 56, 49, 42, 40, 37}, {100, 98, 78, 77, 72, 71, 69, 67, 66, 64, 63, 62, 61, 60, 57, 54, 42}, {100, 78, 66, 65, 64, 63, 62, 58, 47, 45, 40}, {100, 98, 78, 72, 71, 70, 69, 68, 67, 64, 61, 59, 58, 57, 56, 53, 52, 50}, {100, 99, 98, 78, 72, 71, 69, 68, 67, 66, 61, 60, 57, 56, 54, 51, 47}, {100, 78, 69, 68, 66, 64, 60, 59, 57, 56, 54, 53, 52, 49, 47}, {98, 78, 72, 66, 62, 54, 50, 42, 39}, {99, 98, 76, 72, 71, 69, 68, 67, 65, 64, 60, 58, 56, 55, 50, 47}, {100, 99, 97, 78, 77, 76, 71, 65, 63, 61, 60, 57, 47}, {98, 93, 78, 73, 69, 66, 62, 61, 60, 59, 54, 53}, {98, 95, 77, 76, 73, 71, 70, 66, 64, 59, 56, 51}, {99, 98, 97, 92, 90, 78, 77, 71, 69, 68, 65, 63, 61, 58}, {100, 98, 97, 94, 93, 90, 89, 78, 77, 76, 72, 65, 61, 60, 59}, {100, 99, 98, 93, 90, 89, 77, 69, 68, 66, 65, 59, 54}, {98, 96, 92, 77, 76, 73, 71, 70, 67, 64, 63, 61}, {99, 97, 92, 83, 76, 71, 70, 69, 67, 65, 64, 63}, {99, 98, 91, 90, 74, 71, 69, 54}, {91, 78, 71, 69, 64, 59, 54}, {99, 95, 93, 91, 90, 85, 76, 73, 70, 65, 59}, {100, 98, 97, 90, 73, 71, 70, 64, 63}, {98, 97, 93, 92, 91, 88, 84, 83, 78, 75, 73, 65}, {97, 93, 89, 88, 77, 76, 68, 67, 61}, {98, 95, 94, 92, 91, 90, 84, 83, 82, 75, 71, 65}, {94, 93, 92, 90, 87, 86, 85, 84, 83, 75, 73, 70}, {98, 97, 95, 94, 90, 85, 84, 83, 82, 76, 74, 66}, {98, 95, 87, 86, 85, 84, 75, 73, 72, 70}, {93, 91, 90, 88, 87, 85, 84, 83, 79, 77, 75, 73}, {94, 90, 82, 74, 65, 63}, {94, 90, 88, 83, 76, 74, 63}, {97, 90, 87, 85, 84, 83, 79, 77, 76, 75, 74}, {97, 96, 92, 87, 85, 84, 83, 76, 75, 70}, {95, 93, 92, 90, 86, 85, 84, 83, 82, 79, 73}, {97, 91, 90, 89, 87, 84, 83, 82, 80, 75}, {93, 92, 90, 88, 86, 83, 75, 74}, {95, 86, 84, 83, 82, 81, 73}, {96, 92, 87, 84, 83, 81, 79, 74}, {85, 84, 75, 70}, {95, 91, 85, 83, 82, 80, 79}, {92, 91, 89, 88, 87, 83, 79}, {91, 89, 85, 84, 79, 75}, {94, 87, 86, 85, 82, 74}, {96, 87, 86, 81, 80, 79}, {92, 88, 87, 86, 81, 79}, {91, 90, 85, 84, 82, 79}, {94, 83, 82, 79, 74}, {95, 94, 88, 81}, {88, 82, 79}, {93, 89, 80}, {88, 83, 79}, {89, 74}, {80}, {81}, {86}, {82}, {85}, {}, {}, {}, {}, {}, {}, {}, {}, {}, {}, {}, {}, {}, {}, {}, {}, {}, {}, {}, {}, {}, {}];
n_opt = 300;
dur = [3, 4, 7, 5, 7, 8, 2, 5, 6, 1, 2, 4, 1, 2, 10, 2, 3, 6, 2, 7, 9, 3, 7, 8, 7, 8, 9, 6, 7, 8, 2, 5, 7, 2, 4, 9, 1, 7, 8, 2, 6, 7, 2, 7, 10, 3, 8, 10, 4, 9, 10, 7, 8, 9, 3, 6, 8, 4, 5, 9, 3, 5, 9, 1, 2, 6, 1, 2, 9, 5, 6, 8, 3, 7, 8, 4, 6, 9, 2, 3, 4, 2, 6, 7, 1, 6, 10, 4, 8, 9, 4, 7, 8, 1, 6, 9, 3, 9, 10, 5, 6, 8, 3, 4, 5, 2, 5, 7, 6, 9, 10, 2, 5, 8, 6, 7, 8, 6, 9, 10, 1, 2, 8, 2, 7, 9, 5, 6, 7, 2, 4, 9, 3, 4, 7, 1, 6, 9, 2, 3, 10, 4, 6, 7, 5, 6, 8, 1, 5, 9, 4, 8, 10, 3, 9, 10, 1, 2, 5, 3, 5, 9, 3, 4, 8, 4, 7, 8, 3, 8, 10, 2, 7, 8, 4, 7, 10, 2, 3, 9, 3, 7, 10, 2, 4, 6, 2, 5, 6, 1, 5, 10, 1, 2, 9, 4, 5, 9, 6, 9, 10, 1, 2, 5, 5, 6, 8, 4, 7, 10, 4, 8, 10, 1, 4, 5, 2, 4, 5, 5, 8, 10, 7, 8, 9, 1, 8, 9, 1, 2, 3, 2, 5, 10, 5, 6, 7, 1, 3, 8, 4, 8, 9, 4, 5, 8, 1, 6, 9, 1, 6, 9, 3, 5, 8, 1, 2, 6, 8, 9, 10, 1, 4, 9, 4, 5, 6, 1, 2, 6, 3, 9, 10, 7, 8, 9, 4, 7, 8, 2, 3, 7, 3, 6, 8, 1, 2, 9, 2, 3, 9, 5, 6, 8, 4, 6, 9, 3, 4, 5];
rreq = [|7, 7, 3, 7, 7, 6, 4, 4, 4, 8, 8, 8, 6, 4, 1, 6, 3, 2, 6, 5, 4, 10, 8, 8, 4, 4, 4, 7, 6, 4, 6, 5, 5, 8, 4, 3, 6, 3, 1, 4, 3, 3, 3, 2, 1, 2, 2, 2, 8, 4, 2, 9, 8, 7, 7, 7, 7, 10, 7, 6, 5, 5, 4, 4, 3, 2, 4, 4, 2, 9, 8, 7, 1, 1, 1, 7, 7, 6, 9, 8, 7, 8, 8, 8, 2, 1, 1, 7, 3, 1, 5, 5, 5, 8, 7, 5, 7, 4, 4, 9, 5, 2, 3, 1, 1, 7, 7, 6, 9, 7, 7, 9, 7, 6, 7, 7, 5, 7, 5, 3, 9, 7, 4, 10, 9, 9, 6, 6, 6, 6, 5, 5, 6, 5, 5, 9, 7, 7, 8, 8, 8, 7, 7, 7, 2, 1, 1, 7, 5, 3, 4, 3, 3, 6, 5, 5, 4, 4, 4, 9, 9, 9, 8, 6, 3, 10, 8, 8, 9, 7, 7, 1, 1, 1, 8, 4, 3, 8, 7, 3, 1, 1, 1, 7, 6, 6, 6, 3, 1, 4, 4, 2, 8, 5, 4, 1, 1, 1, 6, 5, 4, 5, 5, 5, 8, 7, 7, 7, 5, 3, 2, 1, 1, 4, 4, 4, 10, 9, 7, 3, 2, 2, 9, 7, 6, 1, 1, 1, 6, 6, 6, 3, 3, 3, 9, 7, 6, 5, 4, 3, 9, 6, 2, 7, 7, 7, 9, 9, 7, 8, 8, 7, 8, 6, 5, 9, 6, 3, 6, 5, 4, 8, 6, 5, 6, 5, 1, 8, 8, 8, 8, 7, 6, 1, 1, 1, 7, 6, 4, 1, 1, 1, 9, 9, 8, 4, 4, 4, 8, 5, 4, 8, 6, 5, 8, 8, 8, 9, 8, 7
 |5, 3, 3, 6, 6, 6, 4, 2, 2, 7, 4, 4, 7, 7, 5, 8, 7, 7, 9, 8, 8, 3, 3, 3, 7, 5, 4, 9, 8, 8, 8, 8, 8, 6, 5, 5, 5, 5, 4, 8, 8, 8, 7, 5, 3, 8, 8, 7, 10, 9, 8, 6, 6, 6, 6, 6, 4, 6, 2, 2, 1, 1, 1, 9, 6, 5, 9, 9, 7, 8, 6, 5, 7, 5, 4, 8, 8, 8, 8, 6, 4, 4, 3, 3, 9, 5, 3, 9, 9, 7, 8, 7, 7, 7, 7, 7, 6, 5, 5, 5, 3, 3, 10, 10, 10, 9, 8, 8, 9, 9, 9, 5, 5, 3, 3, 2, 2, 4, 4, 4, 7, 5, 5, 4, 3, 1, 4, 3, 3, 4, 3, 3, 5, 3, 3, 10, 8, 8, 8, 7, 7, 6, 6, 6, 2, 2, 2, 2, 2, 2, 6, 6, 6, 4, 4, 4, 3, 3, 1, 5, 3, 1, 4, 4, 2, 6, 5, 5, 3, 1, 1, 6, 6, 3, 4, 3, 3, 5, 5, 5, 7, 4, 2, 6, 6, 4, 9, 7, 6, 10, 6, 2, 7, 6, 6, 4, 2, 2, 6, 5, 2, 3, 3, 3, 2, 2, 2, 7, 6, 4, 8, 7, 4, 6, 3, 3, 4, 2, 1, 8, 5, 3, 1, 1, 1, 9, 8, 7, 7, 4, 3, 4, 3, 2, 8, 8, 8, 6, 5, 5, 8, 6, 2, 5, 4, 4, 4, 3, 3, 5, 5, 2, 3, 2, 2, 10, 9, 8, 1, 1, 1, 10, 9, 8, 4, 3, 3, 5, 5, 5, 9, 6, 2, 1, 1, 1, 9, 9, 9, 3, 3, 3, 9, 8, 7, 7, 6, 6, 10, 8, 8, 5, 2, 2, 6, 4, 4, 6, 4, 2
 |6, 4, 4, 8, 7, 7, 6, 5, 4, 5, 3, 2, 5, 4, 2, 9, 9, 9, 7, 6, 5, 3, 2, 2, 7, 6, 6, 9, 9, 8, 3, 3, 3, 4, 2, 2, 5, 5, 4, 6, 4, 4, 2, 1, 1, 9, 6, 5, 9, 9, 9, 7, 7, 5, 8, 7, 6, 7, 4, 2, 8, 7, 4, 8, 8, 8, 8, 6, 2, 8, 6, 5, 7, 5, 2, 8, 8, 7, 4, 4, 3, 8, 5, 4, 8, 6, 6, 9, 7, 5, 9, 7, 5, 6, 4, 4, 8, 8, 8, 10, 7, 6, 2, 1, 1, 4, 3, 3, 4, 4, 3, 5, 4, 3, 8, 7, 7, 10, 4, 4, 7, 4, 3, 4, 3, 3, 6, 6, 6, 8, 4, 4, 7, 7, 7, 6, 3, 1, 8, 7, 5, 7, 7, 7, 4, 2, 1, 7, 3, 1, 7, 7, 7, 8, 4, 4, 6, 5, 5, 6, 6, 5, 9, 9, 8, 2, 1, 1, 5, 4, 3, 7, 6, 6, 6, 5, 4, 7, 6, 4, 7, 7, 7, 8, 6, 5, 6, 5, 3, 7, 7, 7, 8, 5, 4, 8, 4, 4, 6, 5, 4, 6, 5, 5, 7, 6, 5, 10, 5, 2, 7, 7, 3, 6, 6, 6, 5, 4, 3, 10, 8, 6, 6, 6, 6, 9, 7, 6, 9, 8, 7, 9, 7, 7, 10, 6, 2, 7, 7, 3, 7, 5, 4, 10, 8, 8, 3, 3, 3, 8, 4, 2, 5, 4, 4, 5, 5, 3, 5, 4, 3, 3, 1, 1, 9, 7, 6, 8, 8, 6, 7, 6, 6, 2, 2, 1, 9, 7, 6, 5, 5, 5, 5, 4, 2, 6, 4, 4, 2, 2, 2, 3, 3, 2, 4, 2, 2, 7, 5, 3
 |10, 9, 9, 6, 5, 4, 5, 4, 1, 9, 9, 9, 9, 4, 2, 7, 6, 5, 7, 7, 6, 9, 4, 2, 8, 5, 5, 5, 4, 2, 2, 2, 1, 8, 8, 7, 1, 1, 1, 8, 7, 6, 7, 4, 4, 8, 5, 4, 4, 4, 2, 7, 5, 5, 9, 8, 8, 4, 3, 3, 8, 5, 4, 6, 3, 2, 2, 1, 1, 9, 7, 7, 6, 5, 4, 9, 8, 9, 8, 7, 6, 10, 8, 5, 6, 6, 4, 5, 3, 3, 8, 8, 5, 2, 1, 1, 9, 10, 9, 5, 5, 4, 10, 6, 5, 9, 8, 8, 7, 4, 3, 6, 4, 1, 7, 7, 7, 4, 2, 1, 8, 8, 8, 8, 8, 6, 8, 7, 5, 9, 7, 6, 3, 2, 1, 6, 4, 4, 7, 7, 7, 10, 9, 8, 8, 6, 4, 8, 6, 6, 8, 4, 2, 8, 7, 4, 8, 5, 5, 8, 7, 6, 5, 4, 4, 4, 3, 1, 10, 5, 3, 2, 2, 2, 8, 6, 6, 8, 5, 5, 9, 9, 8, 8, 6, 3, 1, 1, 1, 10, 7, 7, 9, 6, 5, 6, 4, 3, 3, 3, 3, 7, 5, 4, 8, 7, 7, 3, 3, 3, 10, 9, 9, 8, 7, 6, 8, 7, 7, 5, 4, 2, 6, 4, 3, 8, 7, 7, 6, 5, 3, 5, 3, 3, 9, 7, 7, 7, 7, 6, 6, 6, 6, 9, 9, 8, 9, 9, 9, 1, 1, 1, 7, 5, 5, 8, 8, 8, 7, 7, 6, 8, 7, 5, 7, 7, 4, 8, 7, 6, 4, 4, 3, 9, 6, 2, 8, 8, 7, 6, 5, 4, 7, 6, 3, 5, 5, 3, 6, 5, 4, 5, 3, 3, 9, 5, 2, 7, 7, 7|];